Servers = 10;
Clients = 10;

Capacity = [30, 45, 40, 90, 50, 25, 60, 50, 100, 50];

DeploymentCost = [910, 350, 350, 810, 530, 1210, 780, 510, 730, 460];

ClientDemands = [18, 9, 20, 13, 12, 11, 9, 5, 9, 10];

NetworkingCost = [|38, 60, 52, 86, 68, 85, 49, 101, 54, 64
                  |75, 86, 43,  2, 67, 36, 55, 51, 106, 50
              |36, 58, 46, 79, 64, 79, 43, 95,  56, 58,
              |17, 39, 52, 77, 47, 68, 29, 82,  40, 68,
              |71, 91, 15, 54, 85, 77, 62, 95,  99, 11, 
              |31, 28, 90,107, 50, 86, 51, 93,  3, 106, 
              |29, 47, 33, 51, 41, 47, 17, 63,  60, 50, 
              |35, 43, 47, 44, 27, 26, 14, 41,  64, 63, 
              |70, 72, 62, 30, 51, 13, 49, 23,  96, 74, 
              |52, 74, 28, 68, 74, 79, 51, 96,  77, 37 |];

